MIN
  r
ST
  xI1K1J1 + xI1K2J1 = 2
  xI1K1J2 + xI1K2J2 = 3
  xI1K1J3 + xI1K2J3 = 4
  xI1K1J4 + xI1K2J4 = 5
  xI2K1J1 + xI2K2J1 = 3
  xI2K1J2 + xI2K2J2 = 4
  xI2K1J3 + xI2K2J3 = 5
  xI2K1J4 + xI2K2J4 = 6
  xI3K1J1 + xI3K2J1 = 4
  xI3K1J2 + xI3K2J2 = 5
  xI3K1J3 + xI3K2J3 = 6
  xI3K1J4 + xI3K2J4 = 7
  xI1K1J1 + xI1K1J2 + xI1K1J3 + xI1K1J4 - cI1K1 = 0
  xI1K2J1 + xI1K2J2 + xI1K2J3 + xI1K2J4 - cI1K2 = 0
  xI2K1J1 + xI2K1J2 + xI2K1J3 + xI2K1J4 - cI2K1 = 0
  xI2K2J1 + xI2K2J2 + xI2K2J3 + xI2K2J4 - cI2K2 = 0
  xI3K1J1 + xI3K1J2 + xI3K1J3 + xI3K1J4 - cI3K1 = 0
  xI3K2J1 + xI3K2J2 + xI3K2J3 + xI3K2J4 - cI3K2 = 0
  xI1K1J1 + xI2K1J1 + xI3K1J1 - dK1J1 = 0
  xI1K1J2 + xI2K1J2 + xI3K1J2 - dK1J2 = 0
  xI1K1J3 + xI2K1J3 + xI3K1J3 - dK1J3 = 0
  xI1K1J4 + xI2K1J4 + xI3K1J4 - dK1J4 = 0
  xI1K2J1 + xI2K2J1 + xI3K2J1 - dK2J1 = 0
  xI1K2J2 + xI2K2J2 + xI3K2J2 - dK2J2 = 0
  xI1K2J3 + xI2K2J3 + xI3K2J3 - dK2J3 = 0
  xI1K2J4 + xI2K2J4 + xI3K2J4 - dK2J4 = 0
  uI1K1J1 + uI1K2J1 = 3
  uI1K1J2 + uI1K2J2 = 3
  uI1K1J3 + uI1K2J3 = 3
  uI1K1J4 + uI1K2J4 = 3
  uI2K1J1 + uI2K2J1 = 3
  uI2K1J2 + uI2K2J2 = 3
  uI2K1J3 + uI2K2J3 = 3
  uI2K1J4 + uI2K2J4 = 3
  uI3K1J1 + uI3K2J1 = 3
  uI3K1J2 + uI3K2J2 = 3
  uI3K1J3 + uI3K2J3 = 3
  uI3K1J4 + uI3K2J4 = 3
  xI1K1J1 + xI1K1J2 + xI1K1J3 + xI1K1J4 + xI2K1J1 + xI2K1J2 + xI2K1J3 + xI2K1J4 + xI3K1J1 + xI3K1J2 + xI3K1J3 + xI3K1J4 - lK1 = 0
  xI1K2J1 + xI1K2J2 + xI1K2J3 + xI1K2J4 + xI2K2J1 + xI2K2J2 + xI2K2J3 + xI2K2J4 + xI3K2J1 + xI3K2J2 + xI3K2J3 + xI3K2J4 - lK2 = 0
  3 xI1K1J1 - 2 uI1K1J1 = 0
  3 xI1K2J1 - 2 uI1K2J1 = 0
  3 xI1K1J2 - 3 uI1K1J2 = 0
  3 xI1K2J2 - 3 uI1K2J2 = 0
  3 xI1K1J3 - 4 uI1K1J3 = 0
  3 xI1K2J3 - 4 uI1K2J3 = 0
  3 xI1K1J4 - 5 uI1K1J4 = 0
  3 xI1K2J4 - 5 uI1K2J4 = 0
  3 xI2K1J1 - 3 uI2K1J1 = 0
  3 xI2K2J1 - 3 uI2K2J1 = 0
  3 xI2K1J2 - 4 uI2K1J2 = 0
  3 xI2K2J2 - 4 uI2K2J2 = 0
  3 xI2K1J3 - 5 uI2K1J3 = 0
  3 xI2K2J3 - 5 uI2K2J3 = 0
  3 xI2K1J4 - 6 uI2K1J4 = 0
  3 xI2K2J4 - 6 uI2K2J4 = 0
  3 xI3K1J1 - 4 uI3K1J1 = 0
  3 xI3K2J1 - 4 uI3K2J1 = 0
  3 xI3K1J2 - 5 uI3K1J2 = 0
  3 xI3K2J2 - 5 uI3K2J2 = 0
  3 xI3K1J3 - 6 uI3K1J3 = 0
  3 xI3K2J3 - 6 uI3K2J3 = 0
  3 xI3K1J4 - 7 uI3K1J4 = 0
  3 xI3K2J4 - 7 uI3K2J4 = 0
  cI1K1 + cI2K1 + cI3K1 - r <= 0
  cI1K2 + cI2K2 + cI3K2 - r <= 0
BOUND
  0 <= xI1K1J1
  0 <= xI1K1J2
  0 <= xI1K1J3
  0 <= xI1K1J4
  0 <= xI1K2J1
  0 <= xI1K2J2
  0 <= xI1K2J3
  0 <= xI1K2J4
  0 <= xI2K1J1
  0 <= xI2K1J2
  0 <= xI2K1J3
  0 <= xI2K1J4
  0 <= xI2K2J1
  0 <= xI2K2J2
  0 <= xI2K2J3
  0 <= xI2K2J4
  0 <= xI3K1J1
  0 <= xI3K1J2
  0 <= xI3K1J3
  0 <= xI3K1J4
  0 <= xI3K2J1
  0 <= xI3K2J2
  0 <= xI3K2J3
  0 <= xI3K2J4
  0 <= r
BIN
  uI1K1J1
  uI1K2J1
  uI1K1J2
  uI1K2J2
  uI1K1J3
  uI1K2J3
  uI1K1J4
  uI1K2J4
  uI2K1J1
  uI2K2J1
  uI2K1J2
  uI2K2J2
  uI2K1J3
  uI2K2J3
  uI2K1J4
  uI2K2J4
  uI3K1J1
  uI3K2J1
  uI3K1J2
  uI3K2J2
  uI3K1J3
  uI3K2J3
  uI3K1J4
  uI3K2J4
END